VALUE 2800462
1 280
6 159
12 270
13 273
12 17
20 274
22 229
23 232
24 243
26 237
26 28
28 30
33 226
34 222
35 221
36 158
37 179
42 203
43 113
47 236
50 99
53 91
56 84
59 180
61 117
63 109
50 65
65 67
53 69
69 71
56 73
73 75
76 129
71 84
67 91
99 101
63 101
61 109
109 110
113 115
115 116
116 119
117 165
110 118
118 119
116 128
128 129
129 134
76 137
134 143
137 149
149 154
154 158
143 159
165 170
170 182
36 179
180 182
182 190
190 192
192 206
203 206
206 214
214 219
34 219
34 220
220 221
222 223
223 224
33 224
226 227
227 228
228 230
30 229
23 230
24 232
236 268
24 237
243 244
244 246
246 248
248 251
17 251
258 274
260 265
260 264
258 265
264 268
13 270
272 275
273 275
272 274
1 275
6 281
12 282
17 283
20 284
22 285
24 286
26 287
28 288
30 289
35 290
37 291
42 292
43 293
47 294
50 295
53 296
56 297
59 298
61 299
63 300
65 301
67 302
69 303
71 304
73 305
75 306
76 307

